Version identifier: 22.1.1.0 | 2022-11-28 | 9160aff4d
CPXPARAM_TimeLimit                               3600
Tried aggregator 1 time.
MIP Presolve eliminated 176 rows and 127 columns.
Reduced MIP has 5774 rows, 2491 columns, and 17222 nonzeros.
Reduced MIP has 2491 binaries, 0 generals, 0 SOSs, and 0 indicators.
Presolve time = 0.01 sec. (12.89 ticks)
Found incumbent of value 4422876.000000 after 0.02 sec. (15.71 ticks)
Probing time = 0.00 sec. (3.56 ticks)
Tried aggregator 1 time.
Detecting symmetries...
Reduced MIP has 5774 rows, 2491 columns, and 17222 nonzeros.
Reduced MIP has 2491 binaries, 0 generals, 0 SOSs, and 0 indicators.
Presolve time = 0.01 sec. (14.37 ticks)
Probing time = 0.01 sec. (3.56 ticks)
Clique table members: 2374.
MIP emphasis: balance optimality and feasibility.
MIP search method: dynamic search.
Parallel mode: deterministic, using up to 8 threads.
Root relaxation solution time = 0.01 sec. (10.89 ticks)

        Nodes                                         Cuts/
   Node  Left     Objective  IInf  Best Integer    Best Bound    ItCnt     Gap

*     0+    0                      4422876.0000        0.0000           100.00%
*     0+    0                      2439313.0000        0.0000           100.00%
*     0+    0                       478758.0000        0.0000           100.00%
*     0+    0                       364895.0000        0.0000           100.00%
*     0+    0                       339996.0000        0.0000           100.00%
      0     0    93774.0000   100   339996.0000    93774.0000      164   72.42%
*     0+    0                       201180.0000    93774.0000            53.39%
      0     0   106217.5000   100   201180.0000     Cuts: 168      273   47.20%
*     0+    0                       143913.0000   106217.5000            26.19%
      0     0   117624.5000    82   143913.0000     Cuts: 167      369   18.27%
*     0+    0                       143106.0000   117624.5000            17.81%
      0     0  -1.00000e+75     0   143106.0000   117624.5000      369   17.81%
*     0+    0                       142911.0000   117624.5000            17.69%
Detecting symmetries...
*     0+    0                       141774.0000   117624.5000            17.03%
*     0+    0                       141582.0000   117624.5000            16.92%

Repeating presolve.
Tried aggregator 2 times.
MIP Presolve eliminated 5047 rows and 1955 columns.
MIP Presolve modified 436 coefficients.
Aggregator did 1 substitutions.
Reduced MIP has 726 rows, 535 columns, and 2472 nonzeros.
Reduced MIP has 535 binaries, 0 generals, 0 SOSs, and 0 indicators.
Presolve time = 0.00 sec. (5.47 ticks)
Probing time = 0.00 sec. (0.56 ticks)
Tried aggregator 1 time.
Detecting symmetries...
Reduced MIP has 726 rows, 535 columns, and 2472 nonzeros.
Reduced MIP has 535 binaries, 0 generals, 0 SOSs, and 0 indicators.
Presolve time = 0.00 sec. (2.45 ticks)
Represolve time = 0.01 sec. (13.98 ticks)
Probing time = 0.00 sec. (0.56 ticks)
Clique table members: 580.
MIP emphasis: balance optimality and feasibility.
MIP search method: dynamic search.
Parallel mode: deterministic, using up to 8 threads.
Root relaxation solution time = 0.01 sec. (7.93 ticks)

        Nodes                                         Cuts/
   Node  Left     Objective  IInf  Best Integer    Best Bound    ItCnt     Gap

*     0+    0                       141582.0000   117624.5000            16.92%
      0     0   138347.5000    50   141582.0000   138347.5000      686    2.28%
*     0+    0                       140736.0000   138347.5000             1.70%
      0     0   138865.0000    85   140736.0000      Cuts: 14      712    1.33%
      0     0   139314.6364   107   140736.0000      Cuts: 49      747    1.01%
*     0+    0                       139976.0000   139314.6364             0.47%
      0     0        cutoff         139976.0000   139976.0000      747    0.00%
Elapsed time = 0.25 sec. (183.68 ticks, tree = 0.01 MB, solutions = 13)

Implied bound cuts applied:  83
Zero-half cuts applied:  11
Lift and project cuts applied:  1
Gomory fractional cuts applied:  3

Root node processing (before b&c):
  Real time             =    0.25 sec. (183.98 ticks)
Parallel b&c, 8 threads:
  Real time             =    0.00 sec. (0.00 ticks)
  Sync time (average)   =    0.00 sec.
  Wait time (average)   =    0.00 sec.
                          ------------
Total (root+branch&cut) =    0.25 sec. (183.98 ticks)
Status: Optimal
Obj: 139976

Instalacoes abertas:
Instalação 4 aberta
Instalação 9 aberta
Instalação 20 aberta
Instalação 22 aberta

Atribuições (cliente -> instalação):
Cliente 0 -> Instalação 9
Cliente 1 -> Instalação 4
Cliente 2 -> Instalação 9
Cliente 3 -> Instalação 9
Cliente 4 -> Instalação 4
Cliente 5 -> Instalação 9
Cliente 6 -> Instalação 4
Cliente 7 -> Instalação 9
Cliente 8 -> Instalação 4
Cliente 9 -> Instalação 9
Cliente 10 -> Instalação 20
Cliente 11 -> Instalação 20
Cliente 12 -> Instalação 20
Cliente 13 -> Instalação 9
Cliente 14 -> Instalação 9
Cliente 15 -> Instalação 9
Cliente 16 -> Instalação 20
Cliente 17 -> Instalação 20
Cliente 18 -> Instalação 20
Cliente 19 -> Instalação 9
Cliente 20 -> Instalação 20
Cliente 21 -> Instalação 9
Cliente 22 -> Instalação 22
Cliente 23 -> Instalação 4
Cliente 24 -> Instalação 9
Cliente 25 -> Instalação 9
Cliente 26 -> Instalação 4
Cliente 27 -> Instalação 20
Cliente 28 -> Instalação 20
Cliente 29 -> Instalação 4
Cliente 30 -> Instalação 9
Cliente 31 -> Instalação 9
Cliente 32 -> Instalação 9
Cliente 33 -> Instalação 4
Cliente 34 -> Instalação 4
Cliente 35 -> Instalação 20
Cliente 36 -> Instalação 4
Cliente 37 -> Instalação 4
Cliente 38 -> Instalação 4
Cliente 39 -> Instalação 4
Cliente 40 -> Instalação 9
Cliente 41 -> Instalação 4
Cliente 42 -> Instalação 4
Cliente 43 -> Instalação 20
Cliente 44 -> Instalação 4
Cliente 45 -> Instalação 4
Cliente 46 -> Instalação 4
Cliente 47 -> Instalação 20
Cliente 48 -> Instalação 20
Cliente 49 -> Instalação 9
